c Generated map
c Size: 13 * 13, weights in range: 1 to 10, walls: False, with ratio 0.2
c dim 4 of 4
c
p sp 169 312
c graph contains 169 nodes and 312 arcs
c
a 1 14 1
a 14 1 1
a 1 2 5
a 2 1 5
a 2 15 6
a 15 2 6
a 2 3 3
a 3 2 3
a 3 16 8
a 16 3 8
a 3 4 4
a 4 3 4
a 4 17 3
a 17 4 3
a 4 5 8
a 5 4 8
a 5 18 4
a 18 5 4
a 5 6 8
a 6 5 8
a 6 19 1
a 19 6 1
a 6 7 7
a 7 6 7
a 7 20 5
a 20 7 5
a 7 8 9
a 8 7 9
a 8 21 3
a 21 8 3
a 8 9 2
a 9 8 2
a 9 22 3
a 22 9 3
a 9 10 8
a 10 9 8
a 10 23 10
a 23 10 10
a 10 11 7
a 11 10 7
a 11 24 6
a 24 11 6
a 11 12 10
a 12 11 10
a 12 25 8
a 25 12 8
a 12 13 9
a 13 12 9
a 13 26 1
a 26 13 1
a 14 27 5
a 27 14 5
a 14 15 9
a 15 14 9
a 15 28 9
a 28 15 9
a 15 16 7
a 16 15 7
a 16 29 9
a 29 16 9
a 16 17 4
a 17 16 4
a 17 30 4
a 30 17 4
a 17 18 4
a 18 17 4
a 18 31 4
a 31 18 4
a 18 19 10
a 19 18 10
a 19 32 1
a 32 19 1
a 19 20 3
a 20 19 3
a 20 33 4
a 33 20 4
a 20 21 10
a 21 20 10
a 21 34 5
a 34 21 5
a 21 22 2
a 22 21 2
a 22 35 9
a 35 22 9
a 22 23 5
a 23 22 5
a 23 36 9
a 36 23 9
a 23 24 8
a 24 23 8
a 24 37 3
a 37 24 3
a 24 25 8
a 25 24 8
a 25 38 10
a 38 25 10
a 25 26 10
a 26 25 10
a 26 39 10
a 39 26 10
a 27 40 3
a 40 27 3
a 27 28 1
a 28 27 1
a 28 41 5
a 41 28 5
a 28 29 9
a 29 28 9
a 29 42 10
a 42 29 10
a 29 30 2
a 30 29 2
a 30 43 7
a 43 30 7
a 30 31 7
a 31 30 7
a 31 44 6
a 44 31 6
a 31 32 3
a 32 31 3
a 32 45 9
a 45 32 9
a 32 33 4
a 33 32 4
a 33 46 10
a 46 33 10
a 33 34 4
a 34 33 4
a 34 47 10
a 47 34 10
a 34 35 9
a 35 34 9
a 35 48 5
a 48 35 5
a 35 36 7
a 36 35 7
a 36 49 8
a 49 36 8
a 36 37 2
a 37 36 2
a 37 50 4
a 50 37 4
a 37 38 2
a 38 37 2
a 38 51 8
a 51 38 8
a 38 39 8
a 39 38 8
a 39 52 7
a 52 39 7
a 40 53 10
a 53 40 10
a 40 41 6
a 41 40 6
a 41 54 5
a 54 41 5
a 41 42 7
a 42 41 7
a 42 55 10
a 55 42 10
a 42 43 5
a 43 42 5
a 43 56 6
a 56 43 6
a 43 44 1
a 44 43 1
a 44 57 1
a 57 44 1
a 44 45 4
a 45 44 4
a 45 58 10
a 58 45 10
a 45 46 4
a 46 45 4
a 46 59 8
a 59 46 8
a 46 47 4
a 47 46 4
a 47 60 2
a 60 47 2
a 47 48 3
a 48 47 3
a 48 61 5
a 61 48 5
a 48 49 3
a 49 48 3
a 49 62 3
a 62 49 3
a 49 50 3
a 50 49 3
a 50 63 9
a 63 50 9
a 50 51 5
a 51 50 5
a 51 64 4
a 64 51 4
a 51 52 6
a 52 51 6
a 52 65 8
a 65 52 8
a 53 66 4
a 66 53 4
a 53 54 9
a 54 53 9
a 54 67 5
a 67 54 5
a 54 55 4
a 55 54 4
a 55 68 3
a 68 55 3
a 55 56 5
a 56 55 5
a 56 69 8
a 69 56 8
a 56 57 9
a 57 56 9
a 57 70 6
a 70 57 6
a 57 58 1
a 58 57 1
a 58 71 4
a 71 58 4
a 58 59 8
a 59 58 8
a 59 72 1
a 72 59 1
a 59 60 8
a 60 59 8
a 60 73 6
a 73 60 6
a 60 61 4
a 61 60 4
a 61 74 5
a 74 61 5
a 61 62 7
a 62 61 7
a 62 75 10
a 75 62 10
a 62 63 1
a 63 62 1
a 63 76 6
a 76 63 6
a 63 64 10
a 64 63 10
a 64 77 4
a 77 64 4
a 64 65 3
a 65 64 3
a 65 78 10
a 78 65 10
a 66 79 2
a 79 66 2
a 66 67 5
a 67 66 5
a 67 80 9
a 80 67 9
a 67 68 5
a 68 67 5
a 68 81 5
a 81 68 5
a 68 69 7
a 69 68 7
a 69 82 7
a 82 69 7
a 69 70 3
a 70 69 3
a 70 83 5
a 83 70 5
a 70 71 6
a 71 70 6
a 71 84 8
a 84 71 8
a 71 72 3
a 72 71 3
a 72 85 1
a 85 72 1
a 72 73 5
a 73 72 5
a 73 86 4
a 86 73 4
a 73 74 2
a 74 73 2
a 74 87 7
a 87 74 7
a 74 75 8
a 75 74 8
a 75 88 9
a 88 75 9
a 75 76 1
a 76 75 1
a 76 89 8
a 89 76 8
a 76 77 1
a 77 76 1
a 77 90 1
a 90 77 1
a 77 78 1
a 78 77 1
a 78 91 2
a 91 78 2
a 79 92 3
a 92 79 3
a 79 80 6
a 80 79 6
a 80 93 6
a 93 80 6
a 80 81 10
a 81 80 10
a 81 94 2
a 94 81 2
a 81 82 9
a 82 81 9
a 82 95 9
a 95 82 9
a 82 83 7
a 83 82 7
a 83 96 10
a 96 83 10
a 83 84 10
a 84 83 10
a 84 97 9
a 97 84 9
a 84 85 9
a 85 84 9
a 85 98 10
a 98 85 10
a 85 86 8
a 86 85 8
a 86 99 4
a 99 86 4
a 86 87 2
a 87 86 2
a 87 100 1
a 100 87 1
a 87 88 1
a 88 87 1
a 88 101 9
a 101 88 9
a 88 89 7
a 89 88 7
a 89 102 1
a 102 89 1
a 89 90 2
a 90 89 2
a 90 103 6
a 103 90 6
a 90 91 2
a 91 90 2
a 91 104 2
a 104 91 2
a 92 105 2
a 105 92 2
a 92 93 2
a 93 92 2
a 93 106 2
a 106 93 2
a 93 94 5
a 94 93 5
a 94 107 5
a 107 94 5
a 94 95 3
a 95 94 3
a 95 108 4
a 108 95 4
a 95 96 10
a 96 95 10
a 96 109 3
a 109 96 3
a 96 97 10
a 97 96 10
a 97 110 4
a 110 97 4
a 97 98 2
a 98 97 2
a 98 111 2
a 111 98 2
a 98 99 8
a 99 98 8
a 99 112 9
a 112 99 9
a 99 100 6
a 100 99 6
a 100 113 8
a 113 100 8
a 100 101 8
a 101 100 8
a 101 114 1
a 114 101 1
a 101 102 7
a 102 101 7
a 102 115 5
a 115 102 5
a 102 103 7
a 103 102 7
a 103 116 1
a 116 103 1
a 103 104 10
a 104 103 10
a 104 117 7
a 117 104 7
a 105 118 3
a 118 105 3
a 105 106 1
a 106 105 1
a 106 119 4
a 119 106 4
a 106 107 3
a 107 106 3
a 107 120 1
a 120 107 1
a 107 108 10
a 108 107 10
a 108 121 3
a 121 108 3
a 108 109 6
a 109 108 6
a 109 122 10
a 122 109 10
a 109 110 10
a 110 109 10
a 110 123 3
a 123 110 3
a 110 111 7
a 111 110 7
a 111 124 7
a 124 111 7
a 111 112 5
a 112 111 5
a 112 125 1
a 125 112 1
a 112 113 3
a 113 112 3
a 113 126 9
a 126 113 9
a 113 114 10
a 114 113 10
a 114 127 8
a 127 114 8
a 114 115 3
a 115 114 3
a 115 128 6
a 128 115 6
a 115 116 6
a 116 115 6
a 116 129 3
a 129 116 3
a 116 117 3
a 117 116 3
a 117 130 9
a 130 117 9
a 118 131 3
a 131 118 3
a 118 119 2
a 119 118 2
a 119 132 5
a 132 119 5
a 119 120 4
a 120 119 4
a 120 133 5
a 133 120 5
a 120 121 6
a 121 120 6
a 121 134 5
a 134 121 5
a 121 122 4
a 122 121 4
a 122 135 3
a 135 122 3
a 122 123 3
a 123 122 3
a 123 136 1
a 136 123 1
a 123 124 9
a 124 123 9
a 124 137 6
a 137 124 6
a 124 125 9
a 125 124 9
a 125 138 8
a 138 125 8
a 125 126 3
a 126 125 3
a 126 139 9
a 139 126 9
a 126 127 5
a 127 126 5
a 127 140 2
a 140 127 2
a 127 128 5
a 128 127 5
a 128 141 10
a 141 128 10
a 128 129 6
a 129 128 6
a 129 142 3
a 142 129 3
a 129 130 7
a 130 129 7
a 130 143 5
a 143 130 5
a 131 144 6
a 144 131 6
a 131 132 2
a 132 131 2
a 132 145 4
a 145 132 4
a 132 133 7
a 133 132 7
a 133 146 8
a 146 133 8
a 133 134 5
a 134 133 5
a 134 147 6
a 147 134 6
a 134 135 7
a 135 134 7
a 135 148 9
a 148 135 9
a 135 136 1
a 136 135 1
a 136 149 8
a 149 136 8
a 136 137 8
a 137 136 8
a 137 150 3
a 150 137 3
a 137 138 9
a 138 137 9
a 138 151 2
a 151 138 2
a 138 139 7
a 139 138 7
a 139 152 8
a 152 139 8
a 139 140 2
a 140 139 2
a 140 153 5
a 153 140 5
a 140 141 3
a 141 140 3
a 141 154 4
a 154 141 4
a 141 142 5
a 142 141 5
a 142 155 4
a 155 142 4
a 142 143 5
a 143 142 5
a 143 156 3
a 156 143 3
a 144 157 9
a 157 144 9
a 144 145 1
a 145 144 1
a 145 158 1
a 158 145 1
a 145 146 4
a 146 145 4
a 146 159 2
a 159 146 2
a 146 147 3
a 147 146 3
a 147 160 9
a 160 147 9
a 147 148 10
a 148 147 10
a 148 161 3
a 161 148 3
a 148 149 6
a 149 148 6
a 149 162 2
a 162 149 2
a 149 150 3
a 150 149 3
a 150 163 7
a 163 150 7
a 150 151 4
a 151 150 4
a 151 164 2
a 164 151 2
a 151 152 1
a 152 151 1
a 152 165 6
a 165 152 6
a 152 153 8
a 153 152 8
a 153 166 6
a 166 153 6
a 153 154 7
a 154 153 7
a 154 167 4
a 167 154 4
a 154 155 1
a 155 154 1
a 155 168 9
a 168 155 9
a 155 156 7
a 156 155 7
a 156 169 4
a 169 156 4
a 157 158 7
a 158 157 7
a 158 159 5
a 159 158 5
a 159 160 5
a 160 159 5
a 160 161 8
a 161 160 8
a 161 162 8
a 162 161 8
a 162 163 10
a 163 162 10
a 163 164 2
a 164 163 2
a 164 165 2
a 165 164 2
a 165 166 7
a 166 165 7
a 166 167 9
a 167 166 9
a 167 168 2
a 168 167 2
a 168 169 10
a 169 168 10
